12
1 4
2 9
3 5
4 6
5 9
6 5
7 8
8 4
9 1
10 7
11 7
12 8
72
0 1 70
1 0 70
0 2 66
2 0 66
0 3 25
3 0 25
0 4 92
4 0 92
0 5 45
5 0 45
0 6 35
6 0 35
0 7 65
7 0 65
0 8 6
8 0 6
0 9 30
9 0 30
0 10 85
10 0 85
0 11 84
11 0 84
0 12 10
12 0 10
1 2 54
1 5 7
1 6 7
1 7 92
1 8 29
1 9 28
1 10 64
1 11 10
1 12 36
2 3 55
2 5 46
2 6 72
2 7 18
2 8 6
2 9 50
2 10 45
3 5 7
3 6 86
3 7 9
3 9 42
3 12 89
4 5 87
4 6 61
4 7 20
4 8 37
4 9 51
4 10 11
5 6 28
5 9 45
5 11 51
5 12 56
6 7 15
6 8 92
6 9 14
6 10 26
6 11 49
6 12 7
7 9 46
7 10 16
7 11 45
7 12 76
8 10 73
9 10 10
9 11 83
9 12 86
10 11 33
10 12 83
11 12 99
